40
1 0 7
3 1 7
3 2 9
4 0 4
4 1 2
4 2 6
4 3 9
5 0 5
5 2 3
6 0 8
6 1 5
6 3 7
7 1 8
7 2 2
7 3 10
7 4 1
8 1 9
8 2 3
8 5 3
8 6 6
9 0 2
9 1 10
9 3 9
9 4 1
9 6 2
9 8 2
10 1 3
10 4 6
10 5 6
10 6 5
10 9 7
11 2 5
11 4 10
11 6 3
11 8 3
11 10 1
12 1 7
12 6 2
12 7 1
12 8 8
12 9 9
13 1 2
13 2 1
13 4 3
13 5 9
13 6 7
13 9 4
13 10 1
13 11 5
14 0 5
14 1 4
14 4 9
14 7 5
14 8 8
14 9 8
14 10 10
14 12 8
15 0 6
15 1 2
15 4 5
15 5 4
15 6 3
15 8 9
16 0 8
16 1 1
16 2 5
16 3 5
16 5 5
16 6 8
16 9 1
16 12 2
16 13 9
16 14 10
17 1 4
17 2 4
17 3 3
17 4 1
17 5 5
17 7 4
17 10 3
17 13 7
17 14 8
17 15 8
18 0 6
18 1 5
18 4 2
18 7 1
18 8 1
18 9 4
18 14 5
18 15 4
19 0 10
19 2 8
19 6 3
19 7 5
19 12 2
19 15 6
19 16 10
20 2 1
20 3 4
20 5 3
20 9 3
20 14 10
21 2 10
21 3 1
21 4 10
21 6 7
21 8 5
21 9 7
21 11 7
21 13 3
21 14 5
21 16 10
21 17 9
21 18 4
21 19 4
22 5 5
22 7 8
22 8 4
22 9 2
22 12 5
22 13 2
22 15 6
22 17 8
22 18 1
22 19 2
23 1 3
23 3 3
23 6 1
23 10 8
23 11 5
23 12 1
23 14 10
23 15 4
23 16 8
23 18 7
23 22 2
24 0 5
24 1 7
24 4 3
24 6 1
24 9 2
24 10 8
24 11 8
24 15 1
24 16 4
24 19 6
24 20 6
24 21 10
24 23 2
25 2 4
25 3 10
25 5 7
25 8 7
25 9 6
25 10 7
25 13 5
25 14 5
25 16 2
25 19 10
25 21 9
25 22 10
25 23 2
26 0 7
26 2 2
26 4 4
26 7 9
26 15 7
26 16 9
26 20 2
26 22 3
26 23 8
26 24 8
26 25 7
27 3 4
27 5 2
27 7 2
27 9 7
27 13 10
27 14 6
27 17 9
27 18 1
27 19 7
27 20 4
27 21 6
27 22 2
27 23 10
27 24 8
28 5 4
28 6 9
28 7 10
28 8 8
28 9 2
28 11 5
28 12 6
28 18 5
28 19 6
28 20 1
28 21 8
28 22 2
28 26 1
28 27 5
29 0 5
29 2 1
29 5 1
29 7 6
29 8 9
29 9 2
29 10 1
29 12 3
29 14 5
29 21 4
29 23 10
29 24 7
29 26 5
30 0 5
30 6 8
30 9 3
30 10 1
30 12 10
30 17 9
30 18 10
30 20 2
30 24 7
30 26 10
30 27 7
30 28 2
30 29 3
31 2 2
31 4 9
31 5 4
31 6 9
31 7 9
31 8 1
31 10 9
31 11 7
31 13 8
31 18 5
31 19 4
31 20 7
31 21 4
31 23 7
31 24 9
31 30 10
32 0 10
32 8 1
32 9 1
32 10 3
32 11 6
32 13 6
32 15 9
32 19 4
32 21 6
32 25 8
32 26 3
32 27 1
32 28 6
32 31 3
33 0 7
33 2 1
33 3 4
33 8 6
33 10 2
33 12 8
33 15 8
33 16 6
33 17 10
33 19 6
33 20 6
33 26 10
33 28 3
33 29 6
33 31 3
34 1 3
34 4 10
34 7 7
34 9 5
34 10 2
34 12 4
34 14 6
34 15 2
34 17 5
34 19 10
34 22 5
34 23 5
34 24 4
34 25 10
34 27 7
34 28 5
34 29 3
34 32 8
35 1 5
35 2 6
35 3 3
35 6 4
35 7 7
35 8 1
35 10 9
35 11 6
35 13 4
35 14 1
35 17 8
35 18 1
35 19 3
35 20 1
35 23 3
35 24 8
35 25 9
35 26 6
35 27 10
35 28 4
35 29 1
35 33 2
36 2 6
36 8 9
36 12 9
36 13 9
36 14 2
36 19 5
36 21 2
36 23 3
36 25 3
36 28 8
36 30 10
36 35 5
37 6 1
37 8 8
37 9 2
37 10 4
37 13 9
37 18 9
37 21 1
37 25 6
37 26 8
37 27 2
37 30 9
37 32 7
37 33 6
37 35 4
38 0 7
38 3 7
38 6 3
38 10 10
38 12 8
38 16 5
38 18 6
38 19 3
38 22 5
38 23 5
38 30 3
38 32 4
38 34 5
38 36 7
38 37 8
39 0 2
39 1 3
39 5 6
39 7 10
39 10 9
39 11 3
39 12 1
39 14 4
39 19 10
39 20 6
39 21 5
39 22 2
39 23 9
39 24 6
39 28 9
39 30 5
39 31 6
39 34 9
39 35 8
39 36 10
39 37 8
39 38 1
